(declare-const tr Int)
(declare-const i Int)
(declare-const ND Int)
(declare-const term_to_project_onto_integralized Int)
(declare-const |i'| Int)
(assert (and (<= (- i) 0) (<= (+ i -102399) 0)
               (or (<= (+ (- ND) tr 1) 0) (<= (+ ND (- tr) 1) 0))
               (= (+ |i'| (- i) -1) 0)
               (= (+ term_to_project_onto_integralized (- (+ |i'| (- i)))) 0)))
(check-sat)